; benchmark generated from python API
(set-info :status unknown)
(declare-fun x5 () Real)
(declare-fun x3 () Real)
(declare-fun bool.b14 () Bool)
(declare-fun bool.b5 () Bool)
(declare-fun bool.b10 () Bool)
(declare-fun bool.b8 () Bool)
(declare-fun bool.b12 () Bool)
(declare-fun bool.b23 () Bool)
(declare-fun bool.b7 () Bool)
(declare-fun x4 () Real)
(declare-fun bool.b6 () Bool)
(declare-fun bool.b22 () Bool)
(assert
 (forall ((?lambda Real) )(let ((?x13708 (- 10.0)))
 (let ((?x26295 (- 1.0)))
 (let ((?x14456 (* ?x26295 (+ x5 (* 1.0 ?lambda)))))
 (let (($x9546 (and (and (not bool.b8) (not bool.b10)) (and (not bool.b5) (not bool.b14)))))
 (let (($x7954 (not bool.b12)))
 (let (($x15971 (not (and (not bool.b5) bool.b23))))
 (let (($x22588 (and (not (and $x15971 (not (and $x7954 $x9546)))) (<= (+ (* 1.0 (+ x3 (* (/ 1.0 2.0) ?lambda))) ?x14456) ?x13708))))
 (let (($x1262 (and (not (<= (* 1.0 (+ x4 (* 60.0 ?lambda))) 4820.0)) (and bool.b7 $x22588))))
 (let (($x31857 (not (and (not bool.b6) (not (and bool.b5 (not bool.b7)))))))
 (let (($x6784 (not bool.b22)))
 (let (($x6459 (exists ((?lambdaprime Real) )(! (let (($x6784 (not bool.b22)))
 (let (($x15393 (not (<= (* (- 1.0) (+ x3 (* (/ 1.0 2.0) ?lambdaprime))) (- 30.0)))))
 (let (($x21095 (and $x15393 (not (<= (* (- 1.0) (+ x4 (* 60.0 ?lambdaprime))) (- 4910.0))))))
 (let (($x18809 (and (not $x21095) (and $x6784 (and (not bool.b7) (and (not bool.b5) bool.b6))))))
 (let (($x14294 (and $x15393 (not (<= (* (- 1.0) (+ x4 (* 60.0 ?lambdaprime))) (- 4500.0))))))
 (let (($x6256 (and (not $x14294) (and $x6784 (and bool.b7 (and (not bool.b5) (not bool.b6)))))))
 (let (($x14550 (and (not (<= (* (- 1.0) (+ x4 (* 60.0 ?lambdaprime))) (- 4100.0))) $x15393)))
 (let (($x5974 (and (not $x14550) (and $x6784 (and (not bool.b7) (and (not bool.b5) (not bool.b6)))))))
 (let (($x12596 (and (not (<= (* (- 1.0) (+ x5 (* 1.0 ?lambdaprime))) (- 10.0))) (and (and (not $x5974) (not $x6256)) (not $x18809)))))
 (and (and (<= 0.0 ?lambdaprime) (<= ?lambdaprime ?lambda)) (not $x12596))))))))))) :qid k!27))
 ))
 (or (or $x6459 (< ?lambda 0.0)) (not (and $x6784 (and $x31857 (not (and bool.b6 (not $x1262)))))))))))))))))))
 )
(check-sat)
